NAME: sample_FULL_MATRIX
TYPE: TSP
DIMENSION: 6
EDGE_WEIGHT_TYPE: EXPLICIT
EDGE_WEIGHT_FORMAT: LOWER_DIAG_ROW
EDGE_WEIGHT_SECTION
  0
 13  0
 13 10  0
 25 12 16  0
 25 16 12 10  0
 36 25 25 13 13  0
 EOF
